(declare-const X String)
; Host\x3A\s+\x2Ftoolbar\x2Fico\x2F\dencoderserverreport\<\x2Ftitle\>
(assert (str.in_re X (re.++ (str.to_re "Host:") (re.+ (re.union (str.to_re " ") (str.to_re "\u{9}") (str.to_re "\u{a}") (str.to_re "\u{c}") (str.to_re "\u{d}"))) (str.to_re "/toolbar/ico/") (re.range "0" "9") (str.to_re "encoderserverreport</title>\u{a}"))))
; search\.dropspam\.com.*SupportFiles.*Referer\x3A
(assert (not (str.in_re X (re.++ (str.to_re "search.dropspam.com") (re.* re.allchar) (str.to_re "SupportFiles\u{13}") (re.* re.allchar) (str.to_re "Referer:\u{a}")))))
; /^\/cnt\.php\?id=\d+$/U
(assert (str.in_re X (re.++ (str.to_re "//cnt.php?id=") (re.+ (re.range "0" "9")) (str.to_re "/U\u{a}"))))
(check-sat)

(exit)
